% Logging successfully configured
%%%mzn-stat: initTime=0.093538391
%%%mzn-stat: objective=710
%%%mzn-stat: nodes=137
%%%mzn-stat: restarts=0
%%%mzn-stat: peakDepth=135
%%%mzn-stat: solveTime=0.000367166
%%%mzn-stat: variables=294
%%%mzn-stat: propagators=384
%%%mzn-stat: failures=2
%%%mzn-stat: propagations=1292
%%%mzn-stat: nogoods=2
%%%mzn-stat: numAtomicConstraintsPropagated=0
%%%mzn-stat: circuitNumber191PropagationsThatFoundConflict=0
%%%mzn-stat: circuitNumber191TotalFixedEdgesAtConflict=0
%%%mzn-stat: circuitNumber191NumberOfConflicts=0
%%%mzn-stat: circuitNumber191PropagationsThatPruned=1
%%%mzn-stat: circuitNumber191PropagationsTotal=16
%%%mzn-stat: AverageConflictSize=2
%%%mzn-stat: NumUnitNogoodsLearned=0
%%%mzn-stat: AverageLearnedNogoodLength=9
%%%mzn-stat: AverageBacktrackAmount=0
%%%mzn-stat: AverageLbd=8
%%%mzn-stat: 2AutonomousSearchNumBackupCalled=123
%%%mzn-stat: 2AutonomousSearchNumPredicatesRemoved=0
%%%mzn-stat: 2AutonomousSearchNumCalls=124
%%%mzn-stat: 2AutonomousSearchNumPredicatesAdded=35
%%%mzn-stat: 2AutonomousSearchAverageSizeOfHeap=0.28225806451612906
%%%mzn-stat: 2AutonomousSearchNumAssignedPredicatesEncountered=35
%%%mzn-stat-end
maxleg = 710;
succ = array1d(1..20,[2, 5, 6, 1, 14, 8, 9, 12, 4, 11, 13, 10, 18, 19, 3, 7, 16, 17, 20, 15]);
% time elapsed: 16.33 s
----------
%%%mzn-stat: initTime=0.093538391
%%%mzn-stat: objective=605
%%%mzn-stat: nodes=267
%%%mzn-stat: restarts=0
%%%mzn-stat: peakDepth=135
%%%mzn-stat: solveTime=0.001439835
%%%mzn-stat: variables=294
%%%mzn-stat: propagators=384
%%%mzn-stat: failures=3
%%%mzn-stat: propagations=2096
%%%mzn-stat: nogoods=3
%%%mzn-stat: numAtomicConstraintsPropagated=0
%%%mzn-stat: circuitNumber191PropagationsThatFoundConflict=1
%%%mzn-stat: circuitNumber191TotalFixedEdgesAtConflict=18
%%%mzn-stat: circuitNumber191NumberOfConflicts=1
%%%mzn-stat: circuitNumber191PropagationsThatPruned=2
%%%mzn-stat: circuitNumber191PropagationsTotal=30
%%%mzn-stat: AverageConflictSize=6.333333333333333
%%%mzn-stat: NumUnitNogoodsLearned=0
%%%mzn-stat: AverageLearnedNogoodLength=10.666666666666666
%%%mzn-stat: AverageBacktrackAmount=0
%%%mzn-stat: AverageLbd=9.333333333333334
%%%mzn-stat: 2AutonomousSearchNumBackupCalled=240
%%%mzn-stat: 2AutonomousSearchNumPredicatesRemoved=0
%%%mzn-stat: 2AutonomousSearchNumCalls=242
%%%mzn-stat: 2AutonomousSearchNumPredicatesAdded=84
%%%mzn-stat: 2AutonomousSearchAverageSizeOfHeap=0.4834710743801653
%%%mzn-stat: 2AutonomousSearchNumAssignedPredicatesEncountered=117
%%%mzn-stat-end
maxleg = 605;
succ = array1d(1..20,[2, 5, 6, 1, 14, 8, 13, 9, 4, 3, 10, 18, 11, 19, 12, 7, 16, 17, 20, 15]);
% time elapsed: 16.33 s
----------
%%%mzn-stat: initTime=0.093538391
%%%mzn-stat: objective=449
%%%mzn-stat: nodes=393
%%%mzn-stat: restarts=0
%%%mzn-stat: peakDepth=135
%%%mzn-stat: solveTime=0.001880119
%%%mzn-stat: variables=294
%%%mzn-stat: propagators=384
%%%mzn-stat: failures=7
%%%mzn-stat: propagations=3067
%%%mzn-stat: nogoods=7
%%%mzn-stat: numAtomicConstraintsPropagated=0
%%%mzn-stat: circuitNumber191PropagationsThatFoundConflict=1
%%%mzn-stat: circuitNumber191TotalFixedEdgesAtConflict=18
%%%mzn-stat: circuitNumber191NumberOfConflicts=1
%%%mzn-stat: circuitNumber191PropagationsThatPruned=3
%%%mzn-stat: circuitNumber191PropagationsTotal=46
%%%mzn-stat: AverageConflictSize=3.857142857142857
%%%mzn-stat: NumUnitNogoodsLearned=0
%%%mzn-stat: AverageLearnedNogoodLength=12.857142857142858
%%%mzn-stat: AverageBacktrackAmount=0
%%%mzn-stat: AverageLbd=9.571428571428571
%%%mzn-stat: 2AutonomousSearchNumBackupCalled=348
%%%mzn-stat: 2AutonomousSearchNumPredicatesRemoved=0
%%%mzn-stat: 2AutonomousSearchNumCalls=351
%%%mzn-stat: 2AutonomousSearchNumPredicatesAdded=207
%%%mzn-stat: 2AutonomousSearchAverageSizeOfHeap=0.8376068376068376
%%%mzn-stat: 2AutonomousSearchNumAssignedPredicatesEncountered=294
%%%mzn-stat-end
maxleg = 449;
succ = array1d(1..20,[2, 5, 6, 1, 14, 8, 13, 9, 4, 11, 12, 15, 10, 19, 3, 7, 16, 17, 20, 18]);
% time elapsed: 16.33 s
----------
%%%mzn-stat: initTime=0.093538391
%%%mzn-stat: objective=440
%%%mzn-stat: nodes=497
%%%mzn-stat: restarts=0
%%%mzn-stat: peakDepth=135
%%%mzn-stat: solveTime=0.002161662
%%%mzn-stat: variables=294
%%%mzn-stat: propagators=384
%%%mzn-stat: failures=9
%%%mzn-stat: propagations=3994
%%%mzn-stat: nogoods=9
%%%mzn-stat: numAtomicConstraintsPropagated=0
%%%mzn-stat: circuitNumber191PropagationsThatFoundConflict=2
%%%mzn-stat: circuitNumber191TotalFixedEdgesAtConflict=36
%%%mzn-stat: circuitNumber191NumberOfConflicts=2
%%%mzn-stat: circuitNumber191PropagationsThatPruned=5
%%%mzn-stat: circuitNumber191PropagationsTotal=60
%%%mzn-stat: AverageConflictSize=3.4444444444444446
%%%mzn-stat: NumUnitNogoodsLearned=0
%%%mzn-stat: AverageLearnedNogoodLength=12
%%%mzn-stat: AverageBacktrackAmount=0
%%%mzn-stat: AverageLbd=8.88888888888889
%%%mzn-stat: 2AutonomousSearchNumBackupCalled=439
%%%mzn-stat: 2AutonomousSearchNumPredicatesRemoved=0
%%%mzn-stat: 2AutonomousSearchNumCalls=443
%%%mzn-stat: 2AutonomousSearchNumPredicatesAdded=271
%%%mzn-stat: 2AutonomousSearchAverageSizeOfHeap=1.1128668171557563
%%%mzn-stat: 2AutonomousSearchNumAssignedPredicatesEncountered=493
%%%mzn-stat-end
maxleg = 440;
succ = array1d(1..20,[2, 5, 6, 1, 14, 8, 13, 9, 4, 18, 12, 15, 11, 19, 3, 7, 16, 17, 20, 10]);
% time elapsed: 16.33 s
----------
%%%mzn-stat: initTime=0.093538391
%%%mzn-stat: objective=416
%%%mzn-stat: nodes=602
%%%mzn-stat: restarts=0
%%%mzn-stat: peakDepth=135
%%%mzn-stat: solveTime=0.002645677
%%%mzn-stat: variables=294
%%%mzn-stat: propagators=384
%%%mzn-stat: failures=12
%%%mzn-stat: propagations=5143
%%%mzn-stat: nogoods=12
%%%mzn-stat: numAtomicConstraintsPropagated=0
%%%mzn-stat: circuitNumber191PropagationsThatFoundConflict=2
%%%mzn-stat: circuitNumber191TotalFixedEdgesAtConflict=36
%%%mzn-stat: circuitNumber191NumberOfConflicts=2
%%%mzn-stat: circuitNumber191PropagationsThatPruned=7
%%%mzn-stat: circuitNumber191PropagationsTotal=75
%%%mzn-stat: AverageConflictSize=3.6666666666666665
%%%mzn-stat: NumUnitNogoodsLearned=0
%%%mzn-stat: AverageLearnedNogoodLength=13.666666666666666
%%%mzn-stat: AverageBacktrackAmount=0
%%%mzn-stat: AverageLbd=8.583333333333334
%%%mzn-stat: 2AutonomousSearchNumBackupCalled=530
%%%mzn-stat: 2AutonomousSearchNumPredicatesRemoved=0
%%%mzn-stat: 2AutonomousSearchNumCalls=535
%%%mzn-stat: 2AutonomousSearchNumPredicatesAdded=454
%%%mzn-stat: 2AutonomousSearchAverageSizeOfHeap=1.4785046728971962
%%%mzn-stat: 2AutonomousSearchNumAssignedPredicatesEncountered=791
%%%mzn-stat-end
maxleg = 416;
succ = array1d(1..20,[2, 5, 6, 1, 14, 8, 13, 15, 4, 3, 12, 10, 11, 19, 9, 7, 16, 17, 20, 18]);
% time elapsed: 16.33 s
----------
%%%mzn-stat: initTime=0.093538391
%%%mzn-stat: objective=385
%%%mzn-stat: nodes=717
%%%mzn-stat: restarts=0
%%%mzn-stat: peakDepth=135
%%%mzn-stat: solveTime=0.003749385
%%%mzn-stat: variables=294
%%%mzn-stat: propagators=384
%%%mzn-stat: failures=24
%%%mzn-stat: propagations=7114
%%%mzn-stat: nogoods=24
%%%mzn-stat: numAtomicConstraintsPropagated=0
%%%mzn-stat: circuitNumber191PropagationsThatFoundConflict=5
%%%mzn-stat: circuitNumber191TotalFixedEdgesAtConflict=71
%%%mzn-stat: circuitNumber191NumberOfConflicts=5
%%%mzn-stat: circuitNumber191PropagationsThatPruned=8
%%%mzn-stat: circuitNumber191PropagationsTotal=100
%%%mzn-stat: AverageConflictSize=3.9583333333333335
%%%mzn-stat: NumUnitNogoodsLearned=0
%%%mzn-stat: AverageLearnedNogoodLength=16.083333333333332
%%%mzn-stat: AverageBacktrackAmount=0
%%%mzn-stat: AverageLbd=8.25
%%%mzn-stat: 2AutonomousSearchNumBackupCalled=620
%%%mzn-stat: 2AutonomousSearchNumPredicatesRemoved=0
%%%mzn-stat: 2AutonomousSearchNumCalls=626
%%%mzn-stat: 2AutonomousSearchNumPredicatesAdded=843
%%%mzn-stat: 2AutonomousSearchAverageSizeOfHeap=1.9968051118210863
%%%mzn-stat: 2AutonomousSearchNumAssignedPredicatesEncountered=1250
%%%mzn-stat-end
maxleg = 385;
succ = array1d(1..20,[2, 5, 6, 14, 16, 8, 13, 15, 4, 1, 12, 3, 11, 19, 9, 17, 7, 10, 20, 18]);
% time elapsed: 16.33 s
----------
%%%mzn-stat: initTime=0.093538391
%%%mzn-stat: objective=376
%%%mzn-stat: nodes=829
%%%mzn-stat: restarts=0
%%%mzn-stat: peakDepth=135
%%%mzn-stat: solveTime=0.004162527
%%%mzn-stat: variables=294
%%%mzn-stat: propagators=384
%%%mzn-stat: failures=26
%%%mzn-stat: propagations=8077
%%%mzn-stat: nogoods=26
%%%mzn-stat: numAtomicConstraintsPropagated=0
%%%mzn-stat: circuitNumber191PropagationsThatFoundConflict=7
%%%mzn-stat: circuitNumber191TotalFixedEdgesAtConflict=109
%%%mzn-stat: circuitNumber191NumberOfConflicts=7
%%%mzn-stat: circuitNumber191PropagationsThatPruned=10
%%%mzn-stat: circuitNumber191PropagationsTotal=119
%%%mzn-stat: AverageConflictSize=4.423076923076923
%%%mzn-stat: NumUnitNogoodsLearned=0
%%%mzn-stat: AverageLearnedNogoodLength=16.26923076923077
%%%mzn-stat: AverageBacktrackAmount=0
%%%mzn-stat: AverageLbd=8.538461538461538
%%%mzn-stat: 2AutonomousSearchNumBackupCalled=715
%%%mzn-stat: 2AutonomousSearchNumPredicatesRemoved=0
%%%mzn-stat: 2AutonomousSearchNumCalls=722
%%%mzn-stat: 2AutonomousSearchNumPredicatesAdded=955
%%%mzn-stat: 2AutonomousSearchAverageSizeOfHeap=2.380886426592798
%%%mzn-stat: 2AutonomousSearchNumAssignedPredicatesEncountered=1719
%%%mzn-stat-end
maxleg = 376;
succ = array1d(1..20,[2, 5, 6, 14, 16, 8, 13, 15, 4, 3, 12, 10, 11, 19, 9, 17, 7, 1, 20, 18]);
% time elapsed: 16.33 s
----------
%%%mzn-stat: initTime=0.093538391
%%%mzn-stat: objective=373
%%%mzn-stat: nodes=926
%%%mzn-stat: restarts=0
%%%mzn-stat: peakDepth=135
%%%mzn-stat: solveTime=0.004428508
%%%mzn-stat: variables=294
%%%mzn-stat: propagators=384
%%%mzn-stat: failures=26
%%%mzn-stat: propagations=8806
%%%mzn-stat: nogoods=26
%%%mzn-stat: numAtomicConstraintsPropagated=0
%%%mzn-stat: circuitNumber191PropagationsThatFoundConflict=7
%%%mzn-stat: circuitNumber191TotalFixedEdgesAtConflict=109
%%%mzn-stat: circuitNumber191NumberOfConflicts=7
%%%mzn-stat: circuitNumber191PropagationsThatPruned=13
%%%mzn-stat: circuitNumber191PropagationsTotal=132
%%%mzn-stat: AverageConflictSize=4.423076923076923
%%%mzn-stat: NumUnitNogoodsLearned=0
%%%mzn-stat: AverageLearnedNogoodLength=16.26923076923077
%%%mzn-stat: AverageBacktrackAmount=0
%%%mzn-stat: AverageLbd=8.538461538461538
%%%mzn-stat: 2AutonomousSearchNumBackupCalled=801
%%%mzn-stat: 2AutonomousSearchNumPredicatesRemoved=0
%%%mzn-stat: 2AutonomousSearchNumCalls=809
%%%mzn-stat: 2AutonomousSearchNumPredicatesAdded=955
%%%mzn-stat: 2AutonomousSearchAverageSizeOfHeap=2.7045735475896167
%%%mzn-stat: 2AutonomousSearchNumAssignedPredicatesEncountered=2188
%%%mzn-stat-end
maxleg = 373;
succ = array1d(1..20,[2, 5, 6, 14, 16, 8, 13, 15, 10, 18, 12, 3, 11, 1, 9, 17, 7, 20, 4, 19]);
% time elapsed: 16.33 s
----------
%%%mzn-stat: initTime=0.093538391
%%%mzn-stat: objective=370
%%%mzn-stat: nodes=1020
%%%mzn-stat: restarts=0
%%%mzn-stat: peakDepth=135
%%%mzn-stat: solveTime=0.004829894
%%%mzn-stat: variables=294
%%%mzn-stat: propagators=384
%%%mzn-stat: failures=28
%%%mzn-stat: propagations=9829
%%%mzn-stat: nogoods=28
%%%mzn-stat: numAtomicConstraintsPropagated=0
%%%mzn-stat: circuitNumber191PropagationsThatFoundConflict=9
%%%mzn-stat: circuitNumber191TotalFixedEdgesAtConflict=145
%%%mzn-stat: circuitNumber191NumberOfConflicts=9
%%%mzn-stat: circuitNumber191PropagationsThatPruned=15
%%%mzn-stat: circuitNumber191PropagationsTotal=146
%%%mzn-stat: AverageConflictSize=4.678571428571429
%%%mzn-stat: NumUnitNogoodsLearned=0
%%%mzn-stat: AverageLearnedNogoodLength=16.107142857142858
%%%mzn-stat: AverageBacktrackAmount=0
%%%mzn-stat: AverageLbd=8.357142857142858
%%%mzn-stat: 2AutonomousSearchNumBackupCalled=883
%%%mzn-stat: 2AutonomousSearchNumPredicatesRemoved=0
%%%mzn-stat: 2AutonomousSearchNumCalls=892
%%%mzn-stat: 2AutonomousSearchNumPredicatesAdded=1012
%%%mzn-stat: 2AutonomousSearchAverageSizeOfHeap=2.992152466367713
%%%mzn-stat: 2AutonomousSearchNumAssignedPredicatesEncountered=2669
%%%mzn-stat-end
maxleg = 370;
succ = array1d(1..20,[2, 5, 6, 14, 16, 8, 17, 15, 10, 20, 12, 3, 11, 1, 9, 7, 18, 13, 4, 19]);
% time elapsed: 16.33 s
----------
%%%mzn-stat: initTime=0.093538391
%%%mzn-stat: objective=357
%%%mzn-stat: nodes=1160
%%%mzn-stat: restarts=0
%%%mzn-stat: peakDepth=135
%%%mzn-stat: solveTime=0.010959957
%%%mzn-stat: variables=294
%%%mzn-stat: propagators=384
%%%mzn-stat: failures=77
%%%mzn-stat: propagations=18479
%%%mzn-stat: nogoods=77
%%%mzn-stat: numAtomicConstraintsPropagated=0
%%%mzn-stat: circuitNumber191PropagationsThatFoundConflict=16
%%%mzn-stat: circuitNumber191TotalFixedEdgesAtConflict=272
%%%mzn-stat: circuitNumber191NumberOfConflicts=16
%%%mzn-stat: circuitNumber191PropagationsThatPruned=46
%%%mzn-stat: circuitNumber191PropagationsTotal=232
%%%mzn-stat: AverageConflictSize=4.1558441558441555
%%%mzn-stat: NumUnitNogoodsLearned=0
%%%mzn-stat: AverageLearnedNogoodLength=18.61038961038961
%%%mzn-stat: AverageBacktrackAmount=0
%%%mzn-stat: AverageLbd=7.142857142857143
%%%mzn-stat: 2AutonomousSearchNumBackupCalled=965
%%%mzn-stat: 2AutonomousSearchNumPredicatesRemoved=0
%%%mzn-stat: 2AutonomousSearchNumCalls=975
%%%mzn-stat: 2AutonomousSearchNumPredicatesAdded=1478
%%%mzn-stat: 2AutonomousSearchAverageSizeOfHeap=3.310769230769231
%%%mzn-stat: 2AutonomousSearchNumAssignedPredicatesEncountered=3228
%%%mzn-stat-end
maxleg = 357;
succ = array1d(1..20,[2, 5, 6, 19, 16, 8, 17, 15, 10, 20, 12, 3, 11, 4, 9, 7, 18, 13, 1, 14]);
% time elapsed: 16.34 s
----------
==========
% time elapsed: 16.61 s
%%%mzn-stat: initTime=0.093538391
%%%mzn-stat: objective=357
%%%mzn-stat: nodes=3602
%%%mzn-stat: restarts=0
%%%mzn-stat: peakDepth=135
%%%mzn-stat: solveTime=0.284900695
%%%mzn-stat: variables=294
%%%mzn-stat: propagators=384
%%%mzn-stat: failures=2249
%%%mzn-stat: propagations=365831
%%%mzn-stat: nogoods=2249
%%%mzn-stat: numAtomicConstraintsPropagated=0
%%%mzn-stat: circuitNumber191PropagationsThatFoundConflict=227
%%%mzn-stat: circuitNumber191TotalFixedEdgesAtConflict=2948
%%%mzn-stat: circuitNumber191NumberOfConflicts=227
%%%mzn-stat: circuitNumber191PropagationsThatPruned=1452
%%%mzn-stat: circuitNumber191PropagationsTotal=4105
%%%mzn-stat: AverageConflictSize=7.361049355269008
%%%mzn-stat: NumUnitNogoodsLearned=1
%%%mzn-stat: AverageLearnedNogoodLength=27.012005335704757
%%%mzn-stat: AverageBacktrackAmount=0
%%%mzn-stat: AverageLbd=5.363272565584705
%%%mzn-stat: 2AutonomousSearchNumBackupCalled=965
%%%mzn-stat: 2AutonomousSearchNumPredicatesRemoved=0
%%%mzn-stat: 2AutonomousSearchNumCalls=975
%%%mzn-stat: 2AutonomousSearchNumPredicatesAdded=2275
%%%mzn-stat: 2AutonomousSearchAverageSizeOfHeap=3.310769230769231
%%%mzn-stat: 2AutonomousSearchNumAssignedPredicatesEncountered=3228
%%%mzn-stat-end
